sat
(model 
  (define-fun x3 () Int
    2)
  (define-fun x2 () Int
    3)
  (define-fun x1 () Int
    2)
)
sat
(model 
  (define-fun x3 () Int
    2)
  (define-fun x2 () Int
    33)
  (define-fun x1 () Int
    2)
)
